<?xml version="1.0" encoding="UTF-8"?><osil xmlns="os.optimizationservices.org"   xmlns:xsi="http://www.w3.org/2001/XMLSchema-instance" xsi:schemaLocation="os.optimizationservices.org http://www.optimizationservices.org/schemas/2.0/OSiL.xsd" ><instanceHeader><name>q_40_0_75_3</name></instanceHeader><instanceData><variables numberOfVariables="40"><var name="x1" ub="1"/><var name="x2" ub="1"/><var name="x3" ub="1"/><var name="x4" ub="1"/><var name="x5" ub="1"/><var name="x6" ub="1"/><var name="x7" ub="1"/><var name="x8" ub="1"/><var name="x9" ub="1"/><var name="x10" ub="1"/><var name="x11" ub="1"/><var name="x12" ub="1"/><var name="x13" ub="1"/><var name="x14" ub="1"/><var name="x15" ub="1"/><var name="x16" ub="1"/><var name="x17" ub="1"/><var name="x18" ub="1"/><var name="x19" ub="1"/><var name="x20" ub="1"/><var name="x21" ub="1"/><var name="x22" ub="1"/><var name="x23" ub="1"/><var name="x24" ub="1"/><var name="x25" ub="1"/><var name="x26" ub="1"/><var name="x27" ub="1"/><var name="x28" ub="1"/><var name="x29" ub="1"/><var name="x30" ub="1"/><var name="x31" ub="1"/><var name="x32" ub="1"/><var name="x33" ub="1"/><var name="x34" ub="1"/><var name="x35" ub="1"/><var name="x36" ub="1"/><var name="x37" ub="1"/><var name="x38" ub="1"/><var name="x39" ub="1"/><var name="x40" ub="1"/></variables><objectives numberOfObjectives="1"><obj maxOrMin="min" name="defObj_x41" numberOfObjCoef="40"><coef idx="0">-.2985</coef><coef idx="1">.7666</coef><coef idx="2">-.9363</coef><coef idx="3">-.1764</coef><coef idx="4">.6139</coef><coef idx="5">-.8264</coef><coef idx="6">.372</coef><coef idx="7">-.2674</coef><coef idx="8">-.2559</coef><coef idx="9">.7807</coef><coef idx="10">-.7351</coef><coef idx="11">-.7983</coef><coef idx="12">-.8325</coef><coef idx="13">.3431</coef><coef idx="14">-.6811</coef><coef idx="15">8.26e-2</coef><coef idx="16">-.6364</coef><coef idx="17">.737</coef><coef idx="18">2.65e-2</coef><coef idx="19">.3772</coef><coef idx="20">-.199</coef><coef idx="21">.2168</coef><coef idx="22">.5755</coef><coef idx="23">.4204</coef><coef idx="24">.2847</coef><coef idx="25">.1227</coef><coef idx="26">.8318</coef><coef idx="27">-1.33e-2</coef><coef idx="28">.4677</coef><coef idx="29">.9818</coef><coef idx="30">-.884</coef><coef idx="31">.7955</coef><coef idx="32">.8508</coef><coef idx="33">-.219</coef><coef idx="34">-.1155</coef><coef idx="35">.6978</coef><coef idx="36">.4425</coef><coef idx="37">.9231</coef><coef idx="38">.6453</coef><coef idx="39">.9226</coef></obj></objectives><quadraticCoefficients  numberOfQuadraticTerms="420" ><qTerm  idx="-1"  idxOne="0"  idxTwo="0"  coef="-.2323"/><qTerm  idx="-1"  idxOne="0"  idxTwo="1"  coef="-.1328"/><qTerm  idx="-1"  idxOne="0"  idxTwo="3"  coef=".6701"/><qTerm  idx="-1"  idxOne="0"  idxTwo="4"  coef=".6946"/><qTerm  idx="-1"  idxOne="0"  idxTwo="5"  coef=".4003"/><qTerm  idx="-1"  idxOne="0"  idxTwo="6"  coef="-.6794"/><qTerm  idx="-1"  idxOne="0"  idxTwo="7"  coef=".695"/><qTerm  idx="-1"  idxOne="0"  idxTwo="8"  coef="-.6787"/><qTerm  idx="-1"  idxOne="0"  idxTwo="10"  coef="-.7436"/><qTerm  idx="-1"  idxOne="0"  idxTwo="11"  coef=".4042"/><qTerm  idx="-1"  idxOne="0"  idxTwo="14"  coef=".3019"/><qTerm  idx="-1"  idxOne="0"  idxTwo="16"  coef="-.3193"/><qTerm  idx="-1"  idxOne="0"  idxTwo="18"  coef="-.4433"/><qTerm  idx="-1"  idxOne="0"  idxTwo="19"  coef="-.5216"/><qTerm  idx="-1"  idxOne="0"  idxTwo="21"  coef=".8652"/><qTerm  idx="-1"  idxOne="0"  idxTwo="22"  coef=".6401"/><qTerm  idx="-1"  idxOne="0"  idxTwo="24"  coef="6.53e-2"/><qTerm  idx="-1"  idxOne="0"  idxTwo="25"  coef="-.1219"/><qTerm  idx="-1"  idxOne="0"  idxTwo="26"  coef=".8175"/><qTerm  idx="-1"  idxOne="0"  idxTwo="27"  coef=".7173"/><qTerm  idx="-1"  idxOne="0"  idxTwo="28"  coef="5.79e-2"/><qTerm  idx="-1"  idxOne="0"  idxTwo="30"  coef=".2197"/><qTerm  idx="-1"  idxOne="0"  idxTwo="31"  coef="-.1751"/><qTerm  idx="-1"  idxOne="0"  idxTwo="32"  coef="-.4539"/><qTerm  idx="-1"  idxOne="0"  idxTwo="33"  coef=".6875"/><qTerm  idx="-1"  idxOne="0"  idxTwo="35"  coef=".3553"/><qTerm  idx="-1"  idxOne="0"  idxTwo="36"  coef=".3546"/><qTerm  idx="-1"  idxOne="0"  idxTwo="37"  coef=".2915"/><qTerm  idx="-1"  idxOne="0"  idxTwo="38"  coef="-.1419"/><qTerm  idx="-1"  idxOne="0"  idxTwo="39"  coef=".8974"/><qTerm  idx="-1"  idxOne="1"  idxTwo="3"  coef="-.7709"/><qTerm  idx="-1"  idxOne="1"  idxTwo="8"  coef=".7025"/><qTerm  idx="-1"  idxOne="1"  idxTwo="9"  coef=".2871"/><qTerm  idx="-1"  idxOne="1"  idxTwo="10"  coef="-.8686"/><qTerm  idx="-1"  idxOne="1"  idxTwo="12"  coef=".2948"/><qTerm  idx="-1"  idxOne="1"  idxTwo="14"  coef="-.5289"/><qTerm  idx="-1"  idxOne="1"  idxTwo="15"  coef="-.7476"/><qTerm  idx="-1"  idxOne="1"  idxTwo="16"  coef=".3785"/><qTerm  idx="-1"  idxOne="1"  idxTwo="19"  coef="-.8182"/><qTerm  idx="-1"  idxOne="1"  idxTwo="20"  coef=".145"/><qTerm  idx="-1"  idxOne="1"  idxTwo="23"  coef=".7848"/><qTerm  idx="-1"  idxOne="1"  idxTwo="25"  coef=".329"/><qTerm  idx="-1"  idxOne="1"  idxTwo="26"  coef=".4575"/><qTerm  idx="-1"  idxOne="1"  idxTwo="27"  coef=".2925"/><qTerm  idx="-1"  idxOne="1"  idxTwo="28"  coef=".6509"/><qTerm  idx="-1"  idxOne="1"  idxTwo="29"  coef="-.5194"/><qTerm  idx="-1"  idxOne="1"  idxTwo="30"  coef="-.5375"/><qTerm  idx="-1"  idxOne="1"  idxTwo="32"  coef="-.8567"/><qTerm  idx="-1"  idxOne="1"  idxTwo="36"  coef="-.7567"/><qTerm  idx="-1"  idxOne="1"  idxTwo="37"  coef="5.59e-2"/><qTerm  idx="-1"  idxOne="2"  idxTwo="3"  coef="-.5979"/><qTerm  idx="-1"  idxOne="2"  idxTwo="6"  coef="-.5328"/><qTerm  idx="-1"  idxOne="2"  idxTwo="8"  coef=".4108"/><qTerm  idx="-1"  idxOne="2"  idxTwo="10"  coef="-.9746"/><qTerm  idx="-1"  idxOne="2"  idxTwo="11"  coef="-.8816"/><qTerm  idx="-1"  idxOne="2"  idxTwo="13"  coef="-.6054"/><qTerm  idx="-1"  idxOne="2"  idxTwo="16"  coef=".8048"/><qTerm  idx="-1"  idxOne="2"  idxTwo="22"  coef="-.4608"/><qTerm  idx="-1"  idxOne="2"  idxTwo="25"  coef="-.5202"/><qTerm  idx="-1"  idxOne="2"  idxTwo="26"  coef="-1.26e-2"/><qTerm  idx="-1"  idxOne="2"  idxTwo="30"  coef=".4756"/><qTerm  idx="-1"  idxOne="2"  idxTwo="34"  coef="-.1092"/><qTerm  idx="-1"  idxOne="2"  idxTwo="38"  coef=".3646"/><qTerm  idx="-1"  idxOne="3"  idxTwo="3"  coef="-.604"/><qTerm  idx="-1"  idxOne="3"  idxTwo="4"  coef=".8765"/><qTerm  idx="-1"  idxOne="3"  idxTwo="5"  coef=".5905"/><qTerm  idx="-1"  idxOne="3"  idxTwo="6"  coef="-.5705"/><qTerm  idx="-1"  idxOne="3"  idxTwo="8"  coef="-.5678"/><qTerm  idx="-1"  idxOne="3"  idxTwo="9"  coef="-.9959"/><qTerm  idx="-1"  idxOne="3"  idxTwo="10"  coef="-7.73e-2"/><qTerm  idx="-1"  idxOne="3"  idxTwo="11"  coef="-.4033"/><qTerm  idx="-1"  idxOne="3"  idxTwo="14"  coef=".5307"/><qTerm  idx="-1"  idxOne="3"  idxTwo="16"  coef=".8639"/><qTerm  idx="-1"  idxOne="3"  idxTwo="17"  coef=".9249"/><qTerm  idx="-1"  idxOne="3"  idxTwo="19"  coef=".5844"/><qTerm  idx="-1"  idxOne="3"  idxTwo="20"  coef="-.3302"/><qTerm  idx="-1"  idxOne="3"  idxTwo="21"  coef="-.8971"/><qTerm  idx="-1"  idxOne="3"  idxTwo="22"  coef=".9343"/><qTerm  idx="-1"  idxOne="3"  idxTwo="31"  coef="-.4812"/><qTerm  idx="-1"  idxOne="3"  idxTwo="36"  coef="-2.24e-2"/><qTerm  idx="-1"  idxOne="3"  idxTwo="38"  coef="-3.81e-2"/><qTerm  idx="-1"  idxOne="3"  idxTwo="39"  coef="-.6702"/><qTerm  idx="-1"  idxOne="4"  idxTwo="4"  coef="7.65e-2"/><qTerm  idx="-1"  idxOne="4"  idxTwo="5"  coef="-.5192"/><qTerm  idx="-1"  idxOne="4"  idxTwo="12"  coef=".15"/><qTerm  idx="-1"  idxOne="4"  idxTwo="13"  coef=".7511"/><qTerm  idx="-1"  idxOne="4"  idxTwo="15"  coef=".2959"/><qTerm  idx="-1"  idxOne="4"  idxTwo="16"  coef=".6925"/><qTerm  idx="-1"  idxOne="4"  idxTwo="18"  coef="-.7939"/><qTerm  idx="-1"  idxOne="4"  idxTwo="20"  coef="-.4419"/><qTerm  idx="-1"  idxOne="4"  idxTwo="21"  coef="-.4714"/><qTerm  idx="-1"  idxOne="4"  idxTwo="23"  coef="1.46e-2"/><qTerm  idx="-1"  idxOne="4"  idxTwo="24"  coef=".9626"/><qTerm  idx="-1"  idxOne="4"  idxTwo="27"  coef="5.41e-2"/><qTerm  idx="-1"  idxOne="4"  idxTwo="28"  coef="-.7318"/><qTerm  idx="-1"  idxOne="4"  idxTwo="29"  coef="-.6666"/><qTerm  idx="-1"  idxOne="4"  idxTwo="30"  coef=".6844"/><qTerm  idx="-1"  idxOne="4"  idxTwo="36"  coef=".2667"/><qTerm  idx="-1"  idxOne="4"  idxTwo="39"  coef=".9428"/><qTerm  idx="-1"  idxOne="5"  idxTwo="5"  coef="-.8373"/><qTerm  idx="-1"  idxOne="5"  idxTwo="6"  coef=".1923"/><qTerm  idx="-1"  idxOne="5"  idxTwo="7"  coef=".9925"/><qTerm  idx="-1"  idxOne="5"  idxTwo="9"  coef="-.9806"/><qTerm  idx="-1"  idxOne="5"  idxTwo="10"  coef="-.9013"/><qTerm  idx="-1"  idxOne="5"  idxTwo="15"  coef="-.7989"/><qTerm  idx="-1"  idxOne="5"  idxTwo="20"  coef=".959"/><qTerm  idx="-1"  idxOne="5"  idxTwo="21"  coef=".6824"/><qTerm  idx="-1"  idxOne="5"  idxTwo="22"  coef="-9.39e-2"/><qTerm  idx="-1"  idxOne="5"  idxTwo="25"  coef=".9649"/><qTerm  idx="-1"  idxOne="5"  idxTwo="27"  coef=".887"/><qTerm  idx="-1"  idxOne="5"  idxTwo="30"  coef=".1799"/><qTerm  idx="-1"  idxOne="5"  idxTwo="32"  coef="-.3306"/><qTerm  idx="-1"  idxOne="5"  idxTwo="36"  coef=".3269"/><qTerm  idx="-1"  idxOne="5"  idxTwo="38"  coef=".5563"/><qTerm  idx="-1"  idxOne="5"  idxTwo="39"  coef="4.27e-2"/><qTerm  idx="-1"  idxOne="6"  idxTwo="6"  coef="-.5169"/><qTerm  idx="-1"  idxOne="6"  idxTwo="8"  coef="-.1694"/><qTerm  idx="-1"  idxOne="6"  idxTwo="10"  coef="-.8772"/><qTerm  idx="-1"  idxOne="6"  idxTwo="12"  coef="-.6835"/><qTerm  idx="-1"  idxOne="6"  idxTwo="15"  coef="3.61e-2"/><qTerm  idx="-1"  idxOne="6"  idxTwo="16"  coef="-.4938"/><qTerm  idx="-1"  idxOne="6"  idxTwo="17"  coef="-8.24e-2"/><qTerm  idx="-1"  idxOne="6"  idxTwo="18"  coef="-.803"/><qTerm  idx="-1"  idxOne="6"  idxTwo="20"  coef="-.1227"/><qTerm  idx="-1"  idxOne="6"  idxTwo="21"  coef=".3447"/><qTerm  idx="-1"  idxOne="6"  idxTwo="31"  coef="-.5165"/><qTerm  idx="-1"  idxOne="6"  idxTwo="34"  coef=".8204"/><qTerm  idx="-1"  idxOne="6"  idxTwo="37"  coef="-4.19e-2"/><qTerm  idx="-1"  idxOne="6"  idxTwo="38"  coef=".7291"/><qTerm  idx="-1"  idxOne="7"  idxTwo="8"  coef=".1793"/><qTerm  idx="-1"  idxOne="7"  idxTwo="10"  coef="-.2906"/><qTerm  idx="-1"  idxOne="7"  idxTwo="11"  coef="-.4859"/><qTerm  idx="-1"  idxOne="7"  idxTwo="12"  coef=".7745"/><qTerm  idx="-1"  idxOne="7"  idxTwo="13"  coef=".5955"/><qTerm  idx="-1"  idxOne="7"  idxTwo="15"  coef="-.5433"/><qTerm  idx="-1"  idxOne="7"  idxTwo="16"  coef="9.63e-2"/><qTerm  idx="-1"  idxOne="7"  idxTwo="17"  coef=".9131"/><qTerm  idx="-1"  idxOne="7"  idxTwo="22"  coef="-.9212"/><qTerm  idx="-1"  idxOne="7"  idxTwo="23"  coef="-.5989"/><qTerm  idx="-1"  idxOne="7"  idxTwo="25"  coef=".3632"/><qTerm  idx="-1"  idxOne="7"  idxTwo="26"  coef=".7655"/><qTerm  idx="-1"  idxOne="7"  idxTwo="32"  coef="-.2558"/><qTerm  idx="-1"  idxOne="7"  idxTwo="36"  coef="-.3053"/><qTerm  idx="-1"  idxOne="7"  idxTwo="38"  coef=".1917"/><qTerm  idx="-1"  idxOne="8"  idxTwo="10"  coef="5.78e-2"/><qTerm  idx="-1"  idxOne="8"  idxTwo="12"  coef=".5697"/><qTerm  idx="-1"  idxOne="8"  idxTwo="13"  coef=".8762"/><qTerm  idx="-1"  idxOne="8"  idxTwo="18"  coef="-.1523"/><qTerm  idx="-1"  idxOne="8"  idxTwo="19"  coef="-.8181"/><qTerm  idx="-1"  idxOne="8"  idxTwo="21"  coef="4.12e-2"/><qTerm  idx="-1"  idxOne="8"  idxTwo="27"  coef="-.3223"/><qTerm  idx="-1"  idxOne="8"  idxTwo="29"  coef=".8437"/><qTerm  idx="-1"  idxOne="8"  idxTwo="32"  coef="-.4429"/><qTerm  idx="-1"  idxOne="8"  idxTwo="33"  coef=".4707"/><qTerm  idx="-1"  idxOne="8"  idxTwo="34"  coef="-.3139"/><qTerm  idx="-1"  idxOne="8"  idxTwo="35"  coef="-.9997"/><qTerm  idx="-1"  idxOne="8"  idxTwo="39"  coef="-.6852"/><qTerm  idx="-1"  idxOne="9"  idxTwo="9"  coef="-.4383"/><qTerm  idx="-1"  idxOne="9"  idxTwo="11"  coef=".8332"/><qTerm  idx="-1"  idxOne="9"  idxTwo="14"  coef="-.9454"/><qTerm  idx="-1"  idxOne="9"  idxTwo="18"  coef="-.7802"/><qTerm  idx="-1"  idxOne="9"  idxTwo="20"  coef=".1448"/><qTerm  idx="-1"  idxOne="9"  idxTwo="22"  coef="-.3755"/><qTerm  idx="-1"  idxOne="9"  idxTwo="24"  coef=".4462"/><qTerm  idx="-1"  idxOne="9"  idxTwo="25"  coef=".2352"/><qTerm  idx="-1"  idxOne="9"  idxTwo="27"  coef=".1629"/><qTerm  idx="-1"  idxOne="9"  idxTwo="28"  coef=".2847"/><qTerm  idx="-1"  idxOne="9"  idxTwo="31"  coef=".6619"/><qTerm  idx="-1"  idxOne="9"  idxTwo="33"  coef="-.872"/><qTerm  idx="-1"  idxOne="9"  idxTwo="34"  coef=".7458"/><qTerm  idx="-1"  idxOne="9"  idxTwo="35"  coef=".7365"/><qTerm  idx="-1"  idxOne="9"  idxTwo="37"  coef=".5659"/><qTerm  idx="-1"  idxOne="9"  idxTwo="39"  coef="-6.83e-2"/><qTerm  idx="-1"  idxOne="10"  idxTwo="13"  coef="-5.e-4"/><qTerm  idx="-1"  idxOne="10"  idxTwo="14"  coef=".1501"/><qTerm  idx="-1"  idxOne="10"  idxTwo="16"  coef="5.66e-2"/><qTerm  idx="-1"  idxOne="10"  idxTwo="18"  coef=".5755"/><qTerm  idx="-1"  idxOne="10"  idxTwo="19"  coef="-.9551"/><qTerm  idx="-1"  idxOne="10"  idxTwo="21"  coef=".9344"/><qTerm  idx="-1"  idxOne="10"  idxTwo="25"  coef=".8458"/><qTerm  idx="-1"  idxOne="10"  idxTwo="26"  coef=".4242"/><qTerm  idx="-1"  idxOne="10"  idxTwo="27"  coef=".9027"/><qTerm  idx="-1"  idxOne="10"  idxTwo="29"  coef=".2991"/><qTerm  idx="-1"  idxOne="10"  idxTwo="30"  coef="-.6408"/><qTerm  idx="-1"  idxOne="10"  idxTwo="31"  coef=".2476"/><qTerm  idx="-1"  idxOne="10"  idxTwo="33"  coef="-.9189"/><qTerm  idx="-1"  idxOne="10"  idxTwo="35"  coef="-.9427"/><qTerm  idx="-1"  idxOne="10"  idxTwo="36"  coef="-.8452"/><qTerm  idx="-1"  idxOne="10"  idxTwo="37"  coef="-.6695"/><qTerm  idx="-1"  idxOne="10"  idxTwo="39"  coef="3.6e-3"/><qTerm  idx="-1"  idxOne="11"  idxTwo="11"  coef=".289"/><qTerm  idx="-1"  idxOne="11"  idxTwo="13"  coef="-.8866"/><qTerm  idx="-1"  idxOne="11"  idxTwo="16"  coef="-.7705"/><qTerm  idx="-1"  idxOne="11"  idxTwo="20"  coef="2.54e-2"/><qTerm  idx="-1"  idxOne="11"  idxTwo="21"  coef=".9054"/><qTerm  idx="-1"  idxOne="11"  idxTwo="23"  coef="-.6551"/><qTerm  idx="-1"  idxOne="11"  idxTwo="25"  coef=".9365"/><qTerm  idx="-1"  idxOne="11"  idxTwo="27"  coef="-.4841"/><qTerm  idx="-1"  idxOne="11"  idxTwo="29"  coef="7.31e-2"/><qTerm  idx="-1"  idxOne="11"  idxTwo="32"  coef=".4111"/><qTerm  idx="-1"  idxOne="11"  idxTwo="34"  coef=".3022"/><qTerm  idx="-1"  idxOne="11"  idxTwo="36"  coef=".3822"/><qTerm  idx="-1"  idxOne="11"  idxTwo="37"  coef=".6491"/><qTerm  idx="-1"  idxOne="11"  idxTwo="38"  coef="-.5066"/><qTerm  idx="-1"  idxOne="12"  idxTwo="15"  coef="-.9413"/><qTerm  idx="-1"  idxOne="12"  idxTwo="16"  coef="-.365"/><qTerm  idx="-1"  idxOne="12"  idxTwo="17"  coef="-.7983"/><qTerm  idx="-1"  idxOne="12"  idxTwo="18"  coef=".5997"/><qTerm  idx="-1"  idxOne="12"  idxTwo="20"  coef=".3562"/><qTerm  idx="-1"  idxOne="12"  idxTwo="22"  coef="-.4208"/><qTerm  idx="-1"  idxOne="12"  idxTwo="26"  coef=".8607"/><qTerm  idx="-1"  idxOne="12"  idxTwo="29"  coef="-.2785"/><qTerm  idx="-1"  idxOne="12"  idxTwo="30"  coef="4.23e-2"/><qTerm  idx="-1"  idxOne="12"  idxTwo="31"  coef="-.7908"/><qTerm  idx="-1"  idxOne="12"  idxTwo="34"  coef=".5368"/><qTerm  idx="-1"  idxOne="12"  idxTwo="35"  coef="-.5704"/><qTerm  idx="-1"  idxOne="12"  idxTwo="39"  coef=".3404"/><qTerm  idx="-1"  idxOne="13"  idxTwo="13"  coef="-.5106"/><qTerm  idx="-1"  idxOne="13"  idxTwo="16"  coef="-.7448"/><qTerm  idx="-1"  idxOne="13"  idxTwo="18"  coef=".8469"/><qTerm  idx="-1"  idxOne="13"  idxTwo="19"  coef=".3948"/><qTerm  idx="-1"  idxOne="13"  idxTwo="22"  coef="-.5077"/><qTerm  idx="-1"  idxOne="13"  idxTwo="26"  coef="-.5102"/><qTerm  idx="-1"  idxOne="13"  idxTwo="27"  coef="-.6086"/><qTerm  idx="-1"  idxOne="13"  idxTwo="29"  coef=".7216"/><qTerm  idx="-1"  idxOne="13"  idxTwo="30"  coef="-.8522"/><qTerm  idx="-1"  idxOne="13"  idxTwo="31"  coef="1.07e-2"/><qTerm  idx="-1"  idxOne="13"  idxTwo="32"  coef="-.3292"/><qTerm  idx="-1"  idxOne="13"  idxTwo="35"  coef="-.1952"/><qTerm  idx="-1"  idxOne="13"  idxTwo="37"  coef="3.35e-2"/><qTerm  idx="-1"  idxOne="13"  idxTwo="39"  coef="-.8434"/><qTerm  idx="-1"  idxOne="14"  idxTwo="14"  coef="-.2529"/><qTerm  idx="-1"  idxOne="14"  idxTwo="15"  coef=".9093"/><qTerm  idx="-1"  idxOne="14"  idxTwo="18"  coef="6.43e-2"/><qTerm  idx="-1"  idxOne="14"  idxTwo="22"  coef=".2242"/><qTerm  idx="-1"  idxOne="14"  idxTwo="24"  coef=".6056"/><qTerm  idx="-1"  idxOne="14"  idxTwo="25"  coef="-.3409"/><qTerm  idx="-1"  idxOne="14"  idxTwo="27"  coef=".1815"/><qTerm  idx="-1"  idxOne="14"  idxTwo="29"  coef=".6494"/><qTerm  idx="-1"  idxOne="14"  idxTwo="30"  coef="-.7341"/><qTerm  idx="-1"  idxOne="14"  idxTwo="31"  coef=".8969"/><qTerm  idx="-1"  idxOne="14"  idxTwo="32"  coef="-9.8e-2"/><qTerm  idx="-1"  idxOne="14"  idxTwo="33"  coef="-.7681"/><qTerm  idx="-1"  idxOne="14"  idxTwo="34"  coef=".4581"/><qTerm  idx="-1"  idxOne="14"  idxTwo="35"  coef="-.7326"/><qTerm  idx="-1"  idxOne="14"  idxTwo="36"  coef="-.3787"/><qTerm  idx="-1"  idxOne="14"  idxTwo="38"  coef=".7903"/><qTerm  idx="-1"  idxOne="14"  idxTwo="39"  coef="-.5436"/><qTerm  idx="-1"  idxOne="15"  idxTwo="15"  coef="-.288"/><qTerm  idx="-1"  idxOne="15"  idxTwo="16"  coef="-.7333"/><qTerm  idx="-1"  idxOne="15"  idxTwo="17"  coef=".8451"/><qTerm  idx="-1"  idxOne="15"  idxTwo="21"  coef=".2767"/><qTerm  idx="-1"  idxOne="15"  idxTwo="23"  coef=".4912"/><qTerm  idx="-1"  idxOne="15"  idxTwo="24"  coef="-.8079"/><qTerm  idx="-1"  idxOne="15"  idxTwo="26"  coef="-.7274"/><qTerm  idx="-1"  idxOne="15"  idxTwo="27"  coef=".579"/><qTerm  idx="-1"  idxOne="15"  idxTwo="28"  coef="7.44e-2"/><qTerm  idx="-1"  idxOne="15"  idxTwo="31"  coef="-.4485"/><qTerm  idx="-1"  idxOne="15"  idxTwo="32"  coef=".8597"/><qTerm  idx="-1"  idxOne="15"  idxTwo="33"  coef=".7511"/><qTerm  idx="-1"  idxOne="15"  idxTwo="35"  coef="-.4916"/><qTerm  idx="-1"  idxOne="15"  idxTwo="36"  coef="-.7424"/><qTerm  idx="-1"  idxOne="15"  idxTwo="39"  coef=".3622"/><qTerm  idx="-1"  idxOne="16"  idxTwo="18"  coef=".3053"/><qTerm  idx="-1"  idxOne="16"  idxTwo="19"  coef=".1912"/><qTerm  idx="-1"  idxOne="16"  idxTwo="21"  coef="-6.6e-2"/><qTerm  idx="-1"  idxOne="16"  idxTwo="22"  coef="9.5e-2"/><qTerm  idx="-1"  idxOne="16"  idxTwo="23"  coef=".3368"/><qTerm  idx="-1"  idxOne="16"  idxTwo="25"  coef="4.71e-2"/><qTerm  idx="-1"  idxOne="16"  idxTwo="26"  coef=".4675"/><qTerm  idx="-1"  idxOne="16"  idxTwo="27"  coef=".7806"/><qTerm  idx="-1"  idxOne="16"  idxTwo="28"  coef=".6144"/><qTerm  idx="-1"  idxOne="16"  idxTwo="31"  coef="-.2238"/><qTerm  idx="-1"  idxOne="16"  idxTwo="35"  coef=".935"/><qTerm  idx="-1"  idxOne="16"  idxTwo="36"  coef="-2.62e-2"/><qTerm  idx="-1"  idxOne="17"  idxTwo="17"  coef="-2.78e-2"/><qTerm  idx="-1"  idxOne="17"  idxTwo="19"  coef="4.01e-2"/><qTerm  idx="-1"  idxOne="17"  idxTwo="20"  coef=".5186"/><qTerm  idx="-1"  idxOne="17"  idxTwo="21"  coef=".5618"/><qTerm  idx="-1"  idxOne="17"  idxTwo="23"  coef=".988"/><qTerm  idx="-1"  idxOne="17"  idxTwo="24"  coef="-.1372"/><qTerm  idx="-1"  idxOne="17"  idxTwo="26"  coef="-.224"/><qTerm  idx="-1"  idxOne="17"  idxTwo="27"  coef=".87"/><qTerm  idx="-1"  idxOne="17"  idxTwo="28"  coef="5.84e-2"/><qTerm  idx="-1"  idxOne="17"  idxTwo="30"  coef=".5312"/><qTerm  idx="-1"  idxOne="17"  idxTwo="35"  coef=".4155"/><qTerm  idx="-1"  idxOne="17"  idxTwo="36"  coef="5.51e-2"/><qTerm  idx="-1"  idxOne="17"  idxTwo="37"  coef="-.717"/><qTerm  idx="-1"  idxOne="17"  idxTwo="39"  coef="-.6191"/><qTerm  idx="-1"  idxOne="18"  idxTwo="19"  coef="-.2601"/><qTerm  idx="-1"  idxOne="18"  idxTwo="20"  coef=".4891"/><qTerm  idx="-1"  idxOne="18"  idxTwo="21"  coef=".68"/><qTerm  idx="-1"  idxOne="18"  idxTwo="22"  coef=".7469"/><qTerm  idx="-1"  idxOne="18"  idxTwo="24"  coef=".7366"/><qTerm  idx="-1"  idxOne="18"  idxTwo="25"  coef=".703"/><qTerm  idx="-1"  idxOne="18"  idxTwo="26"  coef=".2404"/><qTerm  idx="-1"  idxOne="18"  idxTwo="29"  coef="-.279"/><qTerm  idx="-1"  idxOne="18"  idxTwo="30"  coef="-.5194"/><qTerm  idx="-1"  idxOne="18"  idxTwo="32"  coef=".9109"/><qTerm  idx="-1"  idxOne="18"  idxTwo="33"  coef="-.6612"/><qTerm  idx="-1"  idxOne="18"  idxTwo="34"  coef=".1988"/><qTerm  idx="-1"  idxOne="18"  idxTwo="36"  coef="-.9723"/><qTerm  idx="-1"  idxOne="19"  idxTwo="19"  coef=".3193"/><qTerm  idx="-1"  idxOne="19"  idxTwo="20"  coef=".1272"/><qTerm  idx="-1"  idxOne="19"  idxTwo="23"  coef="7.78e-2"/><qTerm  idx="-1"  idxOne="19"  idxTwo="24"  coef="-.4785"/><qTerm  idx="-1"  idxOne="19"  idxTwo="25"  coef=".1841"/><qTerm  idx="-1"  idxOne="19"  idxTwo="27"  coef="-.4067"/><qTerm  idx="-1"  idxOne="19"  idxTwo="28"  coef=".1632"/><qTerm  idx="-1"  idxOne="19"  idxTwo="29"  coef=".8656"/><qTerm  idx="-1"  idxOne="19"  idxTwo="30"  coef=".1611"/><qTerm  idx="-1"  idxOne="19"  idxTwo="33"  coef=".3543"/><qTerm  idx="-1"  idxOne="19"  idxTwo="36"  coef=".9647"/><qTerm  idx="-1"  idxOne="19"  idxTwo="38"  coef=".9587"/><qTerm  idx="-1"  idxOne="19"  idxTwo="39"  coef="-6.66e-2"/><qTerm  idx="-1"  idxOne="20"  idxTwo="20"  coef=".4269"/><qTerm  idx="-1"  idxOne="20"  idxTwo="22"  coef="-.9024"/><qTerm  idx="-1"  idxOne="20"  idxTwo="23"  coef=".6766"/><qTerm  idx="-1"  idxOne="20"  idxTwo="25"  coef=".5873"/><qTerm  idx="-1"  idxOne="20"  idxTwo="28"  coef="7.72e-2"/><qTerm  idx="-1"  idxOne="20"  idxTwo="29"  coef="-7.31e-2"/><qTerm  idx="-1"  idxOne="20"  idxTwo="31"  coef="-.2137"/><qTerm  idx="-1"  idxOne="20"  idxTwo="32"  coef="-.7503"/><qTerm  idx="-1"  idxOne="20"  idxTwo="33"  coef="-.3695"/><qTerm  idx="-1"  idxOne="20"  idxTwo="36"  coef=".8727"/><qTerm  idx="-1"  idxOne="21"  idxTwo="24"  coef="-.2959"/><qTerm  idx="-1"  idxOne="21"  idxTwo="25"  coef="-.7141"/><qTerm  idx="-1"  idxOne="21"  idxTwo="28"  coef="-.7346"/><qTerm  idx="-1"  idxOne="21"  idxTwo="29"  coef="-.9422"/><qTerm  idx="-1"  idxOne="21"  idxTwo="30"  coef=".7824"/><qTerm  idx="-1"  idxOne="21"  idxTwo="31"  coef=".4184"/><qTerm  idx="-1"  idxOne="21"  idxTwo="37"  coef=".649"/><qTerm  idx="-1"  idxOne="22"  idxTwo="25"  coef="3.84e-2"/><qTerm  idx="-1"  idxOne="22"  idxTwo="26"  coef=".9789"/><qTerm  idx="-1"  idxOne="22"  idxTwo="28"  coef="-.8868"/><qTerm  idx="-1"  idxOne="22"  idxTwo="29"  coef="-.7421"/><qTerm  idx="-1"  idxOne="22"  idxTwo="31"  coef="-.3318"/><qTerm  idx="-1"  idxOne="22"  idxTwo="32"  coef=".3174"/><qTerm  idx="-1"  idxOne="22"  idxTwo="34"  coef=".4195"/><qTerm  idx="-1"  idxOne="22"  idxTwo="35"  coef="5.e-3"/><qTerm  idx="-1"  idxOne="22"  idxTwo="37"  coef="2.62e-2"/><qTerm  idx="-1"  idxOne="22"  idxTwo="39"  coef=".3385"/><qTerm  idx="-1"  idxOne="23"  idxTwo="24"  coef="-.4241"/><qTerm  idx="-1"  idxOne="23"  idxTwo="26"  coef="-.8364"/><qTerm  idx="-1"  idxOne="23"  idxTwo="29"  coef="-.5239"/><qTerm  idx="-1"  idxOne="23"  idxTwo="30"  coef="-.7887"/><qTerm  idx="-1"  idxOne="23"  idxTwo="32"  coef="-.1545"/><qTerm  idx="-1"  idxOne="23"  idxTwo="35"  coef=".7725"/><qTerm  idx="-1"  idxOne="23"  idxTwo="36"  coef="-.3651"/><qTerm  idx="-1"  idxOne="23"  idxTwo="39"  coef="-.1779"/><qTerm  idx="-1"  idxOne="24"  idxTwo="24"  coef=".2559"/><qTerm  idx="-1"  idxOne="24"  idxTwo="26"  coef="-.535"/><qTerm  idx="-1"  idxOne="24"  idxTwo="27"  coef=".1278"/><qTerm  idx="-1"  idxOne="24"  idxTwo="28"  coef=".5194"/><qTerm  idx="-1"  idxOne="24"  idxTwo="29"  coef=".648"/><qTerm  idx="-1"  idxOne="24"  idxTwo="31"  coef=".9947"/><qTerm  idx="-1"  idxOne="24"  idxTwo="33"  coef=".1175"/><qTerm  idx="-1"  idxOne="24"  idxTwo="34"  coef="-.1423"/><qTerm  idx="-1"  idxOne="24"  idxTwo="37"  coef=".6628"/><qTerm  idx="-1"  idxOne="24"  idxTwo="39"  coef=".13"/><qTerm  idx="-1"  idxOne="25"  idxTwo="26"  coef="-.4071"/><qTerm  idx="-1"  idxOne="25"  idxTwo="29"  coef=".6814"/><qTerm  idx="-1"  idxOne="25"  idxTwo="30"  coef="-.7882"/><qTerm  idx="-1"  idxOne="25"  idxTwo="31"  coef=".3766"/><qTerm  idx="-1"  idxOne="25"  idxTwo="36"  coef=".8334"/><qTerm  idx="-1"  idxOne="25"  idxTwo="37"  coef=".5986"/><qTerm  idx="-1"  idxOne="25"  idxTwo="38"  coef="7.47e-2"/><qTerm  idx="-1"  idxOne="26"  idxTwo="26"  coef="-.8366"/><qTerm  idx="-1"  idxOne="26"  idxTwo="27"  coef=".9998"/><qTerm  idx="-1"  idxOne="26"  idxTwo="34"  coef="-.6049"/><qTerm  idx="-1"  idxOne="26"  idxTwo="36"  coef=".5164"/><qTerm  idx="-1"  idxOne="26"  idxTwo="37"  coef="-.4278"/><qTerm  idx="-1"  idxOne="26"  idxTwo="39"  coef=".1725"/><qTerm  idx="-1"  idxOne="27"  idxTwo="30"  coef="-.1331"/><qTerm  idx="-1"  idxOne="27"  idxTwo="31"  coef=".909"/><qTerm  idx="-1"  idxOne="27"  idxTwo="32"  coef=".1085"/><qTerm  idx="-1"  idxOne="27"  idxTwo="35"  coef=".8271"/><qTerm  idx="-1"  idxOne="27"  idxTwo="37"  coef=".9195"/><qTerm  idx="-1"  idxOne="27"  idxTwo="38"  coef="-.1959"/><qTerm  idx="-1"  idxOne="28"  idxTwo="32"  coef="-.5706"/><qTerm  idx="-1"  idxOne="28"  idxTwo="38"  coef=".6792"/><qTerm  idx="-1"  idxOne="29"  idxTwo="30"  coef="7.43e-2"/><qTerm  idx="-1"  idxOne="29"  idxTwo="33"  coef=".9861"/><qTerm  idx="-1"  idxOne="29"  idxTwo="34"  coef="-.2362"/><qTerm  idx="-1"  idxOne="29"  idxTwo="35"  coef=".6625"/><qTerm  idx="-1"  idxOne="29"  idxTwo="39"  coef=".5037"/><qTerm  idx="-1"  idxOne="30"  idxTwo="32"  coef=".5795"/><qTerm  idx="-1"  idxOne="30"  idxTwo="36"  coef="-2.03e-2"/><qTerm  idx="-1"  idxOne="30"  idxTwo="37"  coef=".8518"/><qTerm  idx="-1"  idxOne="30"  idxTwo="39"  coef="-.5176"/><qTerm  idx="-1"  idxOne="31"  idxTwo="31"  coef="-.3992"/><qTerm  idx="-1"  idxOne="31"  idxTwo="32"  coef=".9736"/><qTerm  idx="-1"  idxOne="31"  idxTwo="35"  coef="-.6318"/><qTerm  idx="-1"  idxOne="31"  idxTwo="38"  coef="-.7577"/><qTerm  idx="-1"  idxOne="31"  idxTwo="39"  coef=".5937"/><qTerm  idx="-1"  idxOne="32"  idxTwo="32"  coef=".1"/><qTerm  idx="-1"  idxOne="32"  idxTwo="33"  coef="-.9659"/><qTerm  idx="-1"  idxOne="32"  idxTwo="36"  coef="-.9886"/><qTerm  idx="-1"  idxOne="32"  idxTwo="37"  coef="-.6746"/><qTerm  idx="-1"  idxOne="32"  idxTwo="38"  coef="-.9364"/><qTerm  idx="-1"  idxOne="32"  idxTwo="39"  coef=".2979"/><qTerm  idx="-1"  idxOne="33"  idxTwo="33"  coef="-.9268"/><qTerm  idx="-1"  idxOne="33"  idxTwo="35"  coef=".9874"/><qTerm  idx="-1"  idxOne="33"  idxTwo="37"  coef=".7388"/><qTerm  idx="-1"  idxOne="33"  idxTwo="38"  coef="-.8378"/><qTerm  idx="-1"  idxOne="34"  idxTwo="34"  coef="-2.82e-2"/><qTerm  idx="-1"  idxOne="34"  idxTwo="36"  coef="8.36e-2"/><qTerm  idx="-1"  idxOne="34"  idxTwo="37"  coef="-.2515"/><qTerm  idx="-1"  idxOne="34"  idxTwo="38"  coef="-8.13e-2"/><qTerm  idx="-1"  idxOne="34"  idxTwo="39"  coef=".4116"/><qTerm  idx="-1"  idxOne="35"  idxTwo="35"  coef="-.2989"/><qTerm  idx="-1"  idxOne="35"  idxTwo="37"  coef=".9294"/><qTerm  idx="-1"  idxOne="35"  idxTwo="38"  coef=".8361"/><qTerm  idx="-1"  idxOne="36"  idxTwo="36"  coef="-.5397"/><qTerm  idx="-1"  idxOne="36"  idxTwo="39"  coef="-.5446"/><qTerm  idx="-1"  idxOne="37"  idxTwo="37"  coef="-.3315"/><qTerm  idx="-1"  idxOne="37"  idxTwo="39"  coef=".9279"/><qTerm  idx="-1"  idxOne="38"  idxTwo="38"  coef="8.75e-2"/><qTerm  idx="-1"  idxOne="38"  idxTwo="39"  coef="-.6838"/><qTerm  idx="-1"  idxOne="39"  idxTwo="39"  coef=".5755"/></quadraticCoefficients></instanceData></osil>
